c Command line: hgen8 185 60
p cnf 185 286
86 90 96 135 0
80 28 1 115 0
179 132 68 165 0
14 73 12 170 0
164 155 67 26 0
161 177 94 29 0
121 47 53 157 0
136 149 32 38 0
23 99 160 37 0
20 48 81 66 0
52 180 3 167 0
168 2 10 141 0
55 154 146 147 0
106 114 72 137 0
39 175 134 36 0
31 183 142 148 0
4 95 162 64 0
50 16 7 54 0
91 49 15 61 0
127 24 51 92 0
159 158 172 111 0
117 110 131 13 0
133 56 182 78 0
103 89 59 151 0
11 70 17 152 0
102 109 5 140 0
144 150 18 79 0
139 129 76 74 0
62 27 123 124 0
22 93 58 169 0
107 166 75 41 0
35 119 120 83 0
125 101 100 69 0
43 42 85 116 0
87 156 71 138 0
145 174 185 104 0
25 46 82 65 0
184 19 128 171 0
-1 -2 0
-1 -3 0
-1 -4 0
-1 -5 0
-2 -3 0
-2 -4 0
-2 -5 0
-3 -4 0
-3 -5 0
-4 -5 0
-7 -10 0
-11 -12 0
-11 -13 0
-11 -14 0
-11 -15 0
-12 -13 0
-12 -14 0
-12 -15 0
-13 -14 0
-13 -15 0
-14 -15 0
-16 -17 0
-16 -18 0
-16 -19 0
-16 -20 0
-17 -18 0
-17 -19 0
-17 -20 0
-18 -19 0
-18 -20 0
-19 -20 0
-22 -23 0
-22 -24 0
-22 -25 0
-23 -24 0
-23 -25 0
-24 -25 0
-26 -27 0
-26 -28 0
-26 -29 0
-27 -28 0
-27 -29 0
-28 -29 0
-31 -32 0
-31 -35 0
-32 -35 0
-36 -37 0
-36 -38 0
-36 -39 0
-37 -38 0
-37 -39 0
-38 -39 0
-41 -42 0
-41 -43 0
-42 -43 0
-46 -47 0
-46 -48 0
-46 -49 0
-46 -50 0
-47 -48 0
-47 -49 0
-47 -50 0
-48 -49 0
-48 -50 0
-49 -50 0
-51 -52 0
-51 -53 0
-51 -54 0
-51 -55 0
-52 -53 0
-52 -54 0
-52 -55 0
-53 -54 0
-53 -55 0
-54 -55 0
-56 -58 0
-56 -59 0
-58 -59 0
-61 -62 0
-61 -64 0
-61 -65 0
-62 -64 0
-62 -65 0
-64 -65 0
-66 -67 0
-66 -68 0
-66 -69 0
-66 -70 0
-67 -68 0
-67 -69 0
-67 -70 0
-68 -69 0
-68 -70 0
-69 -70 0
-71 -72 0
-71 -73 0
-71 -74 0
-71 -75 0
-72 -73 0
-72 -74 0
-72 -75 0
-73 -74 0
-73 -75 0
-74 -75 0
-76 -78 0
-76 -79 0
-76 -80 0
-78 -79 0
-78 -80 0
-79 -80 0
-81 -82 0
-81 -83 0
-81 -85 0
-82 -83 0
-82 -85 0
-83 -85 0
-86 -87 0
-86 -89 0
-86 -90 0
-87 -89 0
-87 -90 0
-89 -90 0
-91 -92 0
-91 -93 0
-91 -94 0
-91 -95 0
-92 -93 0
-92 -94 0
-92 -95 0
-93 -94 0
-93 -95 0
-94 -95 0
-96 -99 0
-96 -100 0
-99 -100 0
-101 -102 0
-101 -103 0
-101 -104 0
-102 -103 0
-102 -104 0
-103 -104 0
-106 -107 0
-106 -109 0
-106 -110 0
-107 -109 0
-107 -110 0
-109 -110 0
-111 -114 0
-111 -115 0
-114 -115 0
-116 -117 0
-116 -119 0
-116 -120 0
-117 -119 0
-117 -120 0
-119 -120 0
-121 -123 0
-121 -124 0
-121 -125 0
-123 -124 0
-123 -125 0
-124 -125 0
-127 -128 0
-127 -129 0
-128 -129 0
-131 -132 0
-131 -133 0
-131 -134 0
-131 -135 0
-132 -133 0
-132 -134 0
-132 -135 0
-133 -134 0
-133 -135 0
-134 -135 0
-136 -137 0
-136 -138 0
-136 -139 0
-136 -140 0
-137 -138 0
-137 -139 0
-137 -140 0
-138 -139 0
-138 -140 0
-139 -140 0
-141 -142 0
-141 -144 0
-141 -145 0
-142 -144 0
-142 -145 0
-144 -145 0
-146 -147 0
-146 -148 0
-146 -149 0
-146 -150 0
-147 -148 0
-147 -149 0
-147 -150 0
-148 -149 0
-148 -150 0
-149 -150 0
-151 -152 0
-151 -154 0
-151 -155 0
-152 -154 0
-152 -155 0
-154 -155 0
-156 -157 0
-156 -158 0
-156 -159 0
-156 -160 0
-157 -158 0
-157 -159 0
-157 -160 0
-158 -159 0
-158 -160 0
-159 -160 0
-161 -162 0
-161 -164 0
-161 -165 0
-162 -164 0
-162 -165 0
-164 -165 0
-166 -167 0
-166 -168 0
-166 -169 0
-166 -170 0
-167 -168 0
-167 -169 0
-167 -170 0
-168 -169 0
-168 -170 0
-169 -170 0
-171 -172 0
-171 -174 0
-171 -175 0
-172 -174 0
-172 -175 0
-174 -175 0
-177 -179 0
-177 -180 0
-179 -180 0
-182 -183 0
-182 -184 0
-182 -185 0
-183 -184 0
-183 -185 0
-184 -185 0
